Optimal - objective value 16.00000000
      0 x_0_1                   1                       4
      8 x_0_9                   1                       3
     18 x_0_19                  1                       1
     89 x_4_8                   1                       3
    157 x_8_10                  1                       1
    168 x_8_21                  1                       3
    193 x_10_19                 1                       1
    276 f_0_1                 3.5                       0
    277 f_1_0                 2.5                       0
    292 f_0_9                 3.5                       0
    293 f_9_0                 2.5                       0
    312 f_0_19                  5                       0
    313 f_19_0                  1                       0
    454 f_4_8                 2.5                       0
    455 f_8_4                 3.5                       0
    590 f_8_10                1.5                       0
    591 f_10_8                4.5                       0
    612 f_8_21                3.5                       0
    613 f_21_8                2.5                       0
    662 f_10_19               1.5                       0
    663 f_19_10               4.5                       0
